NAME: path_n32
TYPE: TSP
DIMENSION: 32
EDGE_WEIGHT_TYPE: EUC_2D
NODE_COORD_SECTION
1 0.000000 0.000000
2 10.000000 0.000000
3 20.000000 0.000000
4 30.000000 0.000000
5 40.000000 0.000000
6 50.000000 0.000000
7 60.000000 0.000000
8 70.000000 0.000000
9 80.000000 0.000000
10 90.000000 0.000000
11 100.000000 0.000000
12 110.000000 0.000000
13 120.000000 0.000000
14 130.000000 0.000000
15 140.000000 0.000000
16 150.000000 0.000000
17 160.000000 0.000000
18 170.000000 0.000000
19 180.000000 0.000000
20 190.000000 0.000000
21 200.000000 0.000000
22 210.000000 0.000000
23 220.000000 0.000000
24 230.000000 0.000000
25 240.000000 0.000000
26 250.000000 0.000000
27 260.000000 0.000000
28 270.000000 0.000000
29 280.000000 0.000000
30 290.000000 0.000000
31 300.000000 0.000000
32 310.000000 0.000000
EOF
